1 51140576
2 51140576
3 51140576
4 51140576
5 51140576
6 51140576
7 51140576
8 51140576
9 51140576
10 51140576
11 51140576
12 51140576
13 51140576
14 51140576
15 51140576
16 50766520
17 50766520
18 50766520
19 50766520
20 50766520
21 50766520
22 50766520
23 50766520
24 50766520
25 50766520
26 50766520
27 50766520
28 50766520
29 50766520
30 50766520
31 50766520
32 50766520
33 50766520
34 50766520
35 50766520
36 50766520
37 50766520
38 50766520
39 50766520
40 50766520
41 50766520
42 50766520
43 50766520
44 50766520
45 50766520
46 50766520
47 50766520
48 50766520
49 50766520
50 50766520
51 50766520
52 50766520
53 50766520
54 50766520
55 50766520
56 50766520
57 50766520
58 50766520
59 50766520
60 50766520
61 50766520
62 50766520
63 50766520
64 50766520
65 50766520
66 50766520
67 50766520
68 50766520
69 50766520
70 50766520
71 50766520
72 50766520
73 50766520
74 50766520
75 50766520
76 50048778
77 50048778
78 50048778
79 50048778
80 50048778
81 50048778
82 50048778
83 50048778
84 50048778
85 50048778
86 50048778
87 50048778
88 50048778
89 50048778
90 50048778
91 50048778
92 50048778
93 50048778
94 50048778
95 50048778
96 50048778
97 50048778
98 50048778
99 50048778
100 50048778
101 50048778
102 50048778
103 50048778
104 50048778
105 50048778
106 50048778
107 50048778
108 50048778
109 50048778
110 50048778
111 50048778
112 50048778
113 50048778
114 50048778
115 50048778
116 50048778
117 50048778
118 50048778
119 50048778
120 50048778
121 50048778
122 50048778
123 50048778
124 50048778
125 50048778
126 50048778
127 50048778
128 50048778
129 50048778
130 50048778
131 50048778
132 50048778
133 50048778
134 50048778
135 50048778
136 50048778
137 50048778
138 50048778
139 50048778
140 50048778
141 50048778
142 50048778
143 50048778
144 50048778
145 50048778
146 50048778
147 50048778
148 50048778
149 50048778
150 50048778
151 50048778
152 50048778
153 50048778
154 50048778
155 50048778
156 50048778
157 50048778
158 50048778
159 50048778
160 50048778
161 50048778
162 50048778
163 50048778
164 50048778
165 50048778
166 50048778
167 50048778
168 50048778
169 50048778
170 50048778
171 50048778
172 50048778
173 50048778
174 50048778
175 50048778
176 50048778
177 50048778
178 50048778
179 50048778
180 50048778
181 50048778
182 50048778
183 50048778
184 50048778
185 50048778
186 50048778
187 50048778
188 50048778
189 50048778
190 50048778
191 50048778
192 50048778
193 50048778
194 50048778
195 50048778
196 50048778
197 50048778
198 50048778
199 50048778
200 49629034
201 49629034
202 49629034
203 49629034
204 49629034
205 49629034
206 49629034
207 49629034
208 49629034
209 49629034
210 49629034
211 49629034
212 49629034
213 49629034
214 49629034
215 49629034
216 49629034
217 49629034
218 49629034
219 49629034
220 49629034
221 49629034
222 49629034
223 49629034
224 49629034
225 49629034
226 49629034
227 49629034
228 49629034
229 49629034
230 49629034
231 49629034
232 49629034
233 49629034
234 49629034
235 49629034
236 49629034
237 49629034
238 49629034
239 49629034
240 49629034
241 49629034
242 49629034
243 49629034
244 49629034
245 49629034
246 49629034
247 49629034
248 49629034
249 49629034
250 49629034
 
